data;

param order := 3;
param n := 9;
param givens :  1 2 3 4 5 6 7 8 9 :=
                1 . 7 1 8 3 6 . 9 5 
                2 3 . 9 1 7 2 4 6 8 
                3 2 8 6 . 4 5 3 7 1 
                4 7 9 2 5 6 4 8 1 . 
                5 1 . 3 . . 8 5 2 6 
                6 5 6 8 2 1 3 7 4 9 
                7 9 . 5 4 2 1 6 8 . 
                8 8 2 7 6 5 9 1 . 4 
                9 6 . 4 3 . 7 . 5 2 
;

end;
